certificates/rado_a14_c12_N47.cnf
c Rad2 upper bound instance: x1 + 14*x2 - x3 = 12, interval [1,47]
p cnf 47 192
1 3 0
-1 -3 0
1 2 17 0
-1 -2 -17 0
1 3 31 0
-1 -3 -31 0
1 4 45 0
-1 -4 -45 0
1 2 4 0
-1 -2 -4 0
2 18 0
-2 -18 0
2 3 32 0
-2 -3 -32 0
2 4 46 0
-2 -4 -46 0
1 3 5 0
-1 -3 -5 0
2 3 19 0
-2 -3 -19 0
3 33 0
-3 -33 0
3 4 47 0
-3 -4 -47 0
1 4 6 0
-1 -4 -6 0
2 4 20 0
-2 -4 -20 0
3 4 34 0
-3 -4 -34 0
1 5 7 0
-1 -5 -7 0
2 5 21 0
-2 -5 -21 0
3 5 35 0
-3 -5 -35 0
1 6 8 0
-1 -6 -8 0
2 6 22 0
-2 -6 -22 0
3 6 36 0
-3 -6 -36 0
1 7 9 0
-1 -7 -9 0
2 7 23 0
-2 -7 -23 0
3 7 37 0
-3 -7 -37 0
1 8 10 0
-1 -8 -10 0
2 8 24 0
-2 -8 -24 0
3 8 38 0
-3 -8 -38 0
1 9 11 0
-1 -9 -11 0
2 9 25 0
-2 -9 -25 0
3 9 39 0
-3 -9 -39 0
1 10 12 0
-1 -10 -12 0
2 10 26 0
-2 -10 -26 0
3 10 40 0
-3 -10 -40 0
1 11 13 0
-1 -11 -13 0
2 11 27 0
-2 -11 -27 0
3 11 41 0
-3 -11 -41 0
1 12 14 0
-1 -12 -14 0
2 12 28 0
-2 -12 -28 0
3 12 42 0
-3 -12 -42 0
1 13 15 0
-1 -13 -15 0
2 13 29 0
-2 -13 -29 0
3 13 43 0
-3 -13 -43 0
1 14 16 0
-1 -14 -16 0
2 14 30 0
-2 -14 -30 0
3 14 44 0
-3 -14 -44 0
1 15 17 0
-1 -15 -17 0
2 15 31 0
-2 -15 -31 0
3 15 45 0
-3 -15 -45 0
1 16 18 0
-1 -16 -18 0
2 16 32 0
-2 -16 -32 0
3 16 46 0
-3 -16 -46 0
1 17 19 0
-1 -17 -19 0
2 17 33 0
-2 -17 -33 0
3 17 47 0
-3 -17 -47 0
1 18 20 0
-1 -18 -20 0
2 18 34 0
-2 -18 -34 0
1 19 21 0
-1 -19 -21 0
2 19 35 0
-2 -19 -35 0
1 20 22 0
-1 -20 -22 0
2 20 36 0
-2 -20 -36 0
1 21 23 0
-1 -21 -23 0
2 21 37 0
-2 -21 -37 0
1 22 24 0
-1 -22 -24 0
2 22 38 0
-2 -22 -38 0
1 23 25 0
-1 -23 -25 0
2 23 39 0
-2 -23 -39 0
1 24 26 0
-1 -24 -26 0
2 24 40 0
-2 -24 -40 0
1 25 27 0
-1 -25 -27 0
2 25 41 0
-2 -25 -41 0
1 26 28 0
-1 -26 -28 0
2 26 42 0
-2 -26 -42 0
1 27 29 0
-1 -27 -29 0
2 27 43 0
-2 -27 -43 0
1 28 30 0
-1 -28 -30 0
2 28 44 0
-2 -28 -44 0
1 29 31 0
-1 -29 -31 0
2 29 45 0
-2 -29 -45 0
1 30 32 0
-1 -30 -32 0
2 30 46 0
-2 -30 -46 0
1 31 33 0
-1 -31 -33 0
2 31 47 0
-2 -31 -47 0
1 32 34 0
-1 -32 -34 0
1 33 35 0
-1 -33 -35 0
1 34 36 0
-1 -34 -36 0
1 35 37 0
-1 -35 -37 0
1 36 38 0
-1 -36 -38 0
1 37 39 0
-1 -37 -39 0
1 38 40 0
-1 -38 -40 0
1 39 41 0
-1 -39 -41 0
1 40 42 0
-1 -40 -42 0
1 41 43 0
-1 -41 -43 0
1 42 44 0
-1 -42 -44 0
1 43 45 0
-1 -43 -45 0
1 44 46 0
-1 -44 -46 0
1 45 47 0
-1 -45 -47 0
