certificates/rado_a14_c12_N47.drat
-45 -47 0
d -45 -1 -47 0
15 17 45 0
-3 -47 0
-47 0
45 0
3 0
-1 0
-33 0
-15 0
35 0
31 0
17 0
13 0
-5 0
-43 0
7 0
41 0
-37 0
-11 0
39 0
9 0
0
